benchmarks/expint/expint.lp
Maximize

10 dSta_0 + 21 d0_2 + 8 d2_3 + 2 d2_13 + 17 d3_4 + 1 d4_5 + 2 d4_6 + 2 d5_6 + 2 d6_7 + 19 d6_9 + 1 d7_8 + 19 d7_9 + 19 d8_9 + 3 d9_10 + 7 d9_12 + 1 d10_11 + 17 d10_4 + 1 d11_33 + 18 d12_34 + 1 d13_14 + 3 d13_15 + 3 d14_15 + 5 d15_16 + 1 d16_17 + 2 d16_18 + 2 d17_18 + 2 d18_19 + 7 d18_21 + 1 d19_20 + 7 d19_21 + 7 d20_21 + 7 d21_22 + 3 d21_28 + 1 d22_23 + 2 d22_24 + 2 d23_24 + 2 d24_25 + 2 d24_27 + 1 d25_26 + 2 d25_27 + 2 d26_27 + 4 d27_32 + 5 d28_29 + 2 d28_30 + 2 d29_30 + 5 d29_29 + 11 d30_35 + 4 d31_32 + 1 d32_33 + 5 d32_16 + 18 d33_34 + 4 d34_1 + 6 d35_31


Subject to


\ === tcfg constraints ===
dSta_0 = 1
b0 - d0_2 = 0
b0 - dSta_0 = 0
b1 - d34_1 = 0
b2 - d2_3 - d2_13 = 0
b2 - d0_2 = 0
b3 - d3_4 = 0
b3 - d2_3 = 0
b4 - d4_5 - d4_6 = 0
b4 - d3_4 - d10_4 = 0
b5 - d5_6 = 0
b5 - d4_5 = 0
b6 - d6_7 - d6_9 = 0
b6 - d4_6 - d5_6 = 0
b7 - d7_8 - d7_9 = 0
b7 - d6_7 = 0
b8 - d8_9 = 0
b8 - d7_8 = 0
b9 - d9_10 - d9_12 = 0
b9 - d6_9 - d7_9 - d8_9 = 0
b10 - d10_11 - d10_4 = 0
b10 - d9_10 = 0
b11 - d11_33 = 0
b11 - d10_11 = 0
b12 - d12_34 = 0
b12 - d9_12 = 0
b13 - d13_14 - d13_15 = 0
b13 - d2_13 = 0
b14 - d14_15 = 0
b14 - d13_14 = 0
b15 - d15_16 = 0
b15 - d13_15 - d14_15 = 0
b16 - d16_17 - d16_18 = 0
b16 - d15_16 - d32_16 = 0
b17 - d17_18 = 0
b17 - d16_17 = 0
b18 - d18_19 - d18_21 = 0
b18 - d16_18 - d17_18 = 0
b19 - d19_20 - d19_21 = 0
b19 - d18_19 = 0
b20 - d20_21 = 0
b20 - d19_20 = 0
b21 - d21_22 - d21_28 = 0
b21 - d18_21 - d19_21 - d20_21 = 0
b22 - d22_23 - d22_24 = 0
b22 - d21_22 = 0
b23 - d23_24 = 0
b23 - d22_23 = 0
b24 - d24_25 - d24_27 = 0
b24 - d22_24 - d23_24 = 0
b25 - d25_26 - d25_27 = 0
b25 - d24_25 = 0
b26 - d26_27 = 0
b26 - d25_26 = 0
b27 - d27_32 = 0
b27 - d24_27 - d25_27 - d26_27 = 0
b28 - d28_29 - d28_30 = 0
b28 - d21_28 = 0
b29 - d29_30 - d29_29 = 0
b29 - d28_29 - d29_29 = 0
b30 - d30_35 = 0
b30 - d28_30 - d29_30 = 0
b31 - d31_32 = 0
b31 - d35_31 = 0
b32 - d32_33 - d32_16 = 0
b32 - d27_32 - d31_32 = 0
b33 - d33_34 = 0
b33 - d11_33 - d32_33 = 0
b34 - d34_1 = 0
b34 - d12_34 - d33_34 = 0
b35 - d35_31 = 0
b35 - d30_35 = 0


\ === infeasible path constraints ===

b0 = 1
b1 = 1
b35 = 1
b2 = 1
b3 = 0
b4 = 0
b5 = 0
b6 = 0
b7 = 0
b8 = 0
b9 = 0
b10 = 0
b11 = 0
b12 = 0
b13 = 1
b14 = 1
b15 = 1
b16 = 100
b17 = 0
b18 = 100
b19 = 0
b20 = 0
b21 = 100
b22 = 99
b23 = 0
b24 = 99
b25 = 1
b26 = 0
b27 = 99
b28 = 1
b29 = 49
b30 = 1
b31 = 1
b32 = 100
b33 = 1
b34 = 1

Generals

Sta
b0
d0_2
b1
b2
d2_3
d2_13
b3
d3_4
b4
d4_5
d4_6
b5
d5_6
b6
d6_7
d6_9
b7
d7_8
d7_9
b8
d8_9
b9
d9_10
d9_12
b10
d10_11
d10_4
b11
d11_33
b12
d12_34
b13
d13_14
d13_15
b14
d14_15
b15
d15_16
b16
d16_17
d16_18
b17
d17_18
b18
d18_19
d18_21
b19
d19_20
d19_21
b20
d20_21
b21
d21_22
d21_28
b22
d22_23
d22_24
b23
d23_24
b24
d24_25
d24_27
b25
d25_26
d25_27
b26
d26_27
b27
d27_32
b28
d28_29
d28_30
b29
d29_30
d29_29
b30
d30_35
b31
d31_32
b32
d32_33
d32_16
b33
d33_34
b34
d34_1
b35
d35_31

End
\ total_cons: 108 	total_vars: 89
