benchmarks/singlecore/expint/expint.out
sim-profile: SimpleScalar/PISA Tool Set version 3.0 of August, 2003.
Copyright (c) 1994-2003 by Todd M. Austin, Ph.D. and SimpleScalar, LLC.
All Rights Reserved. This version of SimpleScalar is licensed for academic
non-commercial use.  No portion of this work may be used by any commercial
entity, or for any commercial purpose, without the prior written permission
of SimpleScalar, LLC (info@simplescalar.com).

sim: command line: /home/sudiptac/sudiptac/Work/simplesim-3.0/sim-profile -pcstat sim_num_insn expint 

sim: simulation started @ Thu Mar 18 00:20:55 2010, options follow:

sim-profile: This simulator implements a functional simulator with
profiling support.  Run with the `-h' flag to see profiling options
available.

# -config                     # load configuration from a file
# -dumpconfig                 # dump configuration to a file
# -h                    false # print help message    
# -v                    false # verbose operation     
# -d                    false # enable debug message  
# -i                    false # start in Dlite debugger
-seed                       1 # random number generator seed (0 for timer seed)
# -q                    false # initialize and terminate immediately
# -chkpt               <null> # restore EIO trace execution from <fname>
# -redir:sim           <null> # redirect simulator output to file (non-interactive only)
# -redir:prog          <null> # redirect simulated program output to file
-nice                       0 # simulator scheduling priority
-max:inst                   0 # maximum number of inst's to execute
-all                    false # enable all profile options
-iclass                 false # enable instruction class profiling
-iprof                  false # enable instruction profiling
-brprof                 false # enable branch instruction profiling
-amprof                 false # enable address mode profiling
-segprof                false # enable load/store address segment profiling
-tsymprof               false # enable text symbol profiling
-taddrprof              false # enable text address profiling
-dsymprof               false # enable data symbol profiling
-internal               false # include compiler-internal symbols during symbol profiling
# -pcstat        sim_num_insn # profile stat(s) against text addr's (mult uses ok)

sim: ** starting functional simulation **

sim: ** simulation statistics **
sim_num_insn                   8225 # total number of instructions executed
sim_num_refs                   3608 # total number of loads and stores executed
sim_elapsed_time                  1 # total simulation time in seconds
sim_inst_rate             8225.0000 # simulation speed (in insts/sec)

sim_num_insn_by_pc     # total number of instructions executed (by text address)
sim_num_insn_by_pc.count = 852
sim_num_insn_by_pc.total = 8224
sim_num_insn_by_pc.imin = 0x400140
sim_num_insn_by_pc.imax = 0x4059c0
sim_num_insn_by_pc.average =   9.6526
sim_num_insn_by_pc.std_dev =  47.9829
sim_num_insn_by_pc.overflows = 0
# pdf == prob dist fn, cdf == cumulative dist fn
#          index      count    pdf 
sim_num_insn_by_pc.start_dist
0x400140 1 0.01
0x400148 1 0.01
0x400150 1 0.01
0x400158 1 0.01
0x400160 1 0.01
0x400168 1 0.01
0x400170 1 0.01
0x400178 1 0.01
0x400180 1 0.01
0x400188 1 0.01
0x400190 1 0.01
0x400198 1 0.01
0x4001a0 1 0.01
0x4001a8 1 0.01
0x4001b0 1 0.01
0x4001b8 1 0.01
0x4001c0 1 0.01
0x4001c8 1 0.01
0x4001d0 1 0.01
0x4001d8 1 0.01
0x4001e0 1 0.01
0x4001f0 1 0.01
0x4001f8 1 0.01
0x400200 1 0.01
0x400208 1 0.01
0x400210 1 0.01
0x400218 1 0.01
0x400220 1 0.01
0x400228 1 0.01
0x400230 1 0.01
0x400238 1 0.01
0x400240 1 0.01
0x400248 1 0.01
0x400250 1 0.01
0x400258 1 0.01
0x400260 1 0.01
0x400268 1 0.01
0x400270 1 0.01
0x400278 1 0.01
0x400280 1 0.01
0x400288 1 0.01
0x400290 1 0.01
0x400298 1 0.01
0x4002a0 1 0.01
0x4002a8 1 0.01
0x4002b0 1 0.01
0x4002b8 1 0.01
0x4002c0 1 0.01
0x4002c8 1 0.01
0x4002d0 1 0.01
0x400430 1 0.01
0x400438 1 0.01
0x400440 1 0.01
0x400448 1 0.01
0x400450 1 0.01
0x400458 1 0.01
0x400460 100 1.22
0x400468 100 1.22
0x400478 100 1.22
0x400480 100 1.22
0x4004a0 100 1.22
0x4004a8 100 1.22
0x4004b0 100 1.22
0x4004b8 100 1.22
0x4004c0 99 1.20
0x4004c8 99 1.20
0x4004d0 99 1.20
0x4004d8 99 1.20
0x4004e8 99 1.20
0x4004f0 99 1.20
0x4004f8 1 0.01
0x400500 1 0.01
0x400510 99 1.20
0x400518 99 1.20
0x400520 1 0.01
0x400528 1 0.01
0x400530 1 0.01
0x400538 49 0.60
0x400540 49 0.60
0x400548 49 0.60
0x400550 49 0.60
0x400558 49 0.60
0x400560 1 0.01
0x400568 1 0.01
0x400570 1 0.01
0x400578 1 0.01
0x400580 1 0.01
0x400588 100 1.22
0x400590 100 1.22
0x400598 100 1.22
0x4005a0 100 1.22
0x4005a8 1 0.01
0x4005b0 1 0.01
0x4005b8 1 0.01
0x4005c0 1 0.01
0x4005c8 1 0.01
0x4005d0 1 0.01
0x4005d8 1 0.01
0x4005e0 1 0.01
0x4005e8 1 0.01
0x4005f0 1 0.01
0x4005f8 1 0.01
0x400600 1 0.01
0x400608 1 0.01
0x400610 1 0.01
0x400618 1 0.01
0x400620 1 0.01
0x400628 1 0.01
0x400630 1 0.01
0x400638 1 0.01
0x400640 1 0.01
0x400648 1 0.01
0x400650 1 0.01
0x400658 1 0.01
0x400660 1 0.01
0x400668 1 0.01
0x400670 1 0.01
0x400678 1 0.01
0x400680 1 0.01
0x400688 1 0.01
0x400690 1 0.01
0x400698 1 0.01
0x4006a0 1 0.01
0x4006a8 1 0.01
0x4006b0 1 0.01
0x400760 1 0.01
0x400768 1 0.01
0x400770 1 0.01
0x400778 1 0.01
0x400780 1 0.01
0x4007d0 1 0.01
0x4007d8 1 0.01
0x4007e0 1 0.01
0x4007e8 1 0.01
0x4007f0 1 0.01
0x4007f8 1 0.01
0x400800 1 0.01
0x400808 1 0.01
0x400810 1 0.01
0x400818 1 0.01
0x400820 1 0.01
0x400828 1 0.01
0x400838 1 0.01
0x400840 1 0.01
0x400848 1 0.01
0x400850 1 0.01
0x400858 1 0.01
0x400a70 1 0.01
0x400a78 1 0.01
0x400a80 1 0.01
0x400a88 1 0.01
0x400a90 1 0.01
0x400a98 1 0.01
0x400aa0 1 0.01
0x400ac0 1 0.01
0x400ae0 1 0.01
0x400ae8 1 0.01
0x400af0 1 0.01
0x400af8 1 0.01
0x400b00 1 0.01
0x400b08 1 0.01
0x400b28 1 0.01
0x400b30 1 0.01
0x400b38 1 0.01
0x400b40 1 0.01
0x400b60 1 0.01
0x400b68 1 0.01
0x400b70 1 0.01
0x400b78 1 0.01
0x400b80 1 0.01
0x400b88 1 0.01
0x400b90 1 0.01
0x400b98 1 0.01
0x400ba0 1 0.01
0x400ba8 1 0.01
0x400bb0 1 0.01
0x400bb8 1 0.01
0x400bc0 1 0.01
0x400bc8 1 0.01
0x400bd0 1 0.01
0x400bd8 1 0.01
0x400be0 1 0.01
0x400be8 1 0.01
0x400bf0 1 0.01
0x400bf8 1 0.01
0x400c00 1 0.01
0x400c08 1 0.01
0x400c10 1 0.01
0x400c18 1 0.01
0x400c28 1 0.01
0x400c30 1 0.01
0x400c38 1 0.01
0x400c40 1 0.01
0x400c48 1 0.01
0x400c50 1 0.01
0x400c58 1 0.01
0x400c60 1 0.01
0x400c68 1 0.01
0x400c70 1 0.01
0x400c78 1 0.01
0x400c80 1 0.01
0x400c88 1 0.01
0x400c90 1 0.01
0x400c98 1 0.01
0x400ca0 1 0.01
0x400ca8 1 0.01
0x400cb0 1 0.01
0x400cb8 1 0.01
0x400cc0 1 0.01
0x400cc8 1 0.01
0x400cd0 1 0.01
0x400cd8 1 0.01
0x400ce0 1 0.01
0x400ce8 1 0.01
0x400cf8 1 0.01
0x400d00 1 0.01
0x400d08 1 0.01
0x400d10 1 0.01
0x400d18 1 0.01
0x400d20 1 0.01
0x400d28 1 0.01
0x400d30 1 0.01
0x400d38 1 0.01
0x400d40 1 0.01
0x400d48 1 0.01
0x400d50 1 0.01
0x400d58 1 0.01
0x400d60 1 0.01
0x400d68 1 0.01
0x400d70 1 0.01
0x400d78 1 0.01
0x400da8 1 0.01
0x400db0 1 0.01
0x400dc0 1 0.01
0x400dc8 1 0.01
0x400de0 1 0.01
0x400de8 1 0.01
0x400df0 1 0.01
0x400df8 1 0.01
0x400e08 1 0.01
0x400e10 1 0.01
0x400e18 1 0.01
0x400e20 1 0.01
0x400e28 1 0.01
0x4010b0 1 0.01
0x4010b8 1 0.01
0x4010c0 1 0.01
0x4010c8 1 0.01
0x4010d8 1 0.01
0x4010e0 1 0.01
0x4010e8 1 0.01
0x4010f0 1 0.01
0x4010f8 1 0.01
0x401100 1 0.01
0x401108 1 0.01
0x401110 1 0.01
0x401118 1 0.01
0x401120 1 0.01
0x401128 1 0.01
0x401130 1 0.01
0x401138 1 0.01
0x401140 1 0.01
0x401148 1 0.01
0x401150 1 0.01
0x401158 1 0.01
0x401160 1 0.01
0x401168 1 0.01
0x401170 1 0.01
0x401178 1 0.01
0x401180 1 0.01
0x401198 1 0.01
0x4011a0 1 0.01
0x4011a8 1 0.01
0x4011b0 1 0.01
0x4011b8 1 0.01
0x4011c0 1 0.01
0x4011d0 1 0.01
0x4011d8 1 0.01
0x401570 1 0.01
0x401578 1 0.01
0x401580 1 0.01
0x401588 1 0.01
0x401590 1 0.01
0x401598 1 0.01
0x4015a0 1 0.01
0x4015a8 1 0.01
0x4015b0 1 0.01
0x4015b8 1 0.01
0x4015c0 1 0.01
0x4015c8 1 0.01
0x4015d0 1 0.01
0x4015d8 1 0.01
0x4015e0 1 0.01
0x4015e8 1 0.01
0x4015f0 1 0.01
0x4015f8 1 0.01
0x401600 1 0.01
0x401608 1 0.01
0x401610 1 0.01
0x401618 1 0.01
0x401620 1 0.01
0x401628 1 0.01
0x401630 1 0.01
0x401638 1 0.01
0x401720 1 0.01
0x401728 1 0.01
0x401730 1 0.01
0x401738 1 0.01
0x401740 1 0.01
0x401748 1 0.01
0x401750 1 0.01
0x401760 1 0.01
0x401768 1 0.01
0x401770 1 0.01
0x401778 1 0.01
0x401780 1 0.01
0x401788 1 0.01
0x401790 1 0.01
0x401798 1 0.01
0x4017a0 1 0.01
0x4017a8 1 0.01
0x4017b0 1 0.01
0x4017b8 1 0.01
0x4017c0 1 0.01
0x4017c8 1 0.01
0x4017d0 1 0.01
0x4017d8 1 0.01
0x4017e0 1 0.01
0x401a78 1 0.01
0x401a80 1 0.01
0x401a88 1 0.01
0x401a90 1 0.01
0x401a98 1 0.01
0x401aa0 1 0.01
0x401aa8 1 0.01
0x401ab0 1 0.01
0x401ac0 4 0.05
0x401ac8 4 0.05
0x401ad0 4 0.05
0x401ad8 4 0.05
0x401ae0 4 0.05
0x401ae8 4 0.05
0x401af0 4 0.05
0x401af8 1 0.01
0x401b00 1 0.01
0x401b08 1 0.01
0x401b10 1 0.01
0x401b18 1 0.01
0x401b20 1 0.01
0x401b28 3 0.04
0x401b30 3 0.04
0x401b48 3 0.04
0x401b50 3 0.04
0x401b58 3 0.04
0x401b60 3 0.04
0x401b68 3 0.04
0x401b70 3 0.04
0x401b78 1 0.01
0x401b80 1 0.01
0x401b88 3 0.04
0x401b90 3 0.04
0x401b98 3 0.04
0x401ba0 3 0.04
0x401bb8 3 0.04
0x401bc0 3 0.04
0x401bc8 3 0.04
0x401bd0 3 0.04
0x401bf8 3 0.04
0x401c00 3 0.04
0x401c08 3 0.04
0x401c10 2 0.02
0x401c18 2 0.02
0x401c20 2 0.02
0x401c28 2 0.02
0x401c30 2 0.02
0x401c48 3 0.04
0x401c50 3 0.04
0x401c58 1 0.01
0x401c60 1 0.01
0x401c68 1 0.01
0x401c70 1 0.01
0x401c78 3 0.04
0x401c80 3 0.04
0x401c88 2 0.02
0x401c90 2 0.02
0x401c98 2 0.02
0x401ca0 2 0.02
0x401ca8 1 0.01
0x401cb0 1 0.01
0x401cb8 1 0.01
0x401cc0 1 0.01
0x401cc8 1 0.01
0x401ce8 1 0.01
0x401cf0 3 0.04
0x401cf8 3 0.04
0x401d00 3 0.04
0x401d08 4 0.05
0x401d10 4 0.05
0x401d18 4 0.05
0x401d20 4 0.05
0x401d28 4 0.05
0x401d30 4 0.05
0x401d60 1 0.01
0x401d68 1 0.01
0x401d70 1 0.01
0x401d78 1 0.01
0x401db0 1 0.01
0x401db8 1 0.01
0x401dc0 1 0.01
0x401dc8 1 0.01
0x401dd0 1 0.01
0x401dd8 1 0.01
0x401de0 2 0.02
0x401de8 2 0.02
0x401df0 2 0.02
0x401df8 2 0.02
0x401e00 2 0.02
0x401e08 2 0.02
0x401e10 2 0.02
0x401e18 2 0.02
0x401e20 1 0.01
0x401e28 1 0.01
0x401e30 1 0.01
0x401e38 1 0.01
0x401e40 1 0.01
0x401e48 1 0.01
0x401e50 1 0.01
0x401e58 1 0.01
0x401e60 1 0.01
0x401e68 1 0.01
0x401e70 1 0.01
0x401e78 1 0.01
0x401e80 1 0.01
0x401e88 1 0.01
0x401e90 1 0.01
0x401e98 1 0.01
0x401ea0 1 0.01
0x401ea8 1 0.01
0x401ee8 1 0.01
0x401ef0 1 0.01
0x401ef8 1 0.01
0x401f00 3 0.04
0x401f08 3 0.04
0x401f10 3 0.04
0x401f18 3 0.04
0x401f20 3 0.04
0x401f28 3 0.04
0x401f30 3 0.04
0x401f38 3 0.04
0x401f40 3 0.04
0x401f48 3 0.04
0x401f50 4 0.05
0x401f58 4 0.05
0x401f60 4 0.05
0x401f68 4 0.05
0x401f70 4 0.05
0x401f78 4 0.05
0x401f80 4 0.05
0x401f88 4 0.05
0x401f90 4 0.05
0x401f98 4 0.05
0x401fc8 4 0.05
0x401fd0 4 0.05
0x401fd8 4 0.05
0x401fe0 390 4.74
0x401fe8 390 4.74
0x401ff0 390 4.74
0x401ff8 390 4.74
0x402000 390 4.74
0x402008 390 4.74
0x402010 390 4.74
0x402018 390 4.74
0x402020 390 4.74
0x402028 390 4.74
0x402030 390 4.74
0x402038 390 4.74
0x402040 4 0.05
0x402048 4 0.05
0x402050 4 0.05
0x402058 12 0.15
0x402060 12 0.15
0x402068 12 0.15
0x402070 12 0.15
0x402078 4 0.05
0x402080 4 0.05
0x4020a8 4 0.05
0x4020b0 4 0.05
0x402280 1 0.01
0x402288 1 0.01
0x402290 1 0.01
0x402298 1 0.01
0x4022a0 1 0.01
0x4022a8 1 0.01
0x4022b0 1 0.01
0x4022b8 1 0.01
0x4022c0 1 0.01
0x4022c8 1 0.01
0x4022d8 1 0.01
0x4022e0 1 0.01
0x4022e8 1 0.01
0x4022f0 1 0.01
0x4022f8 1 0.01
0x402300 1 0.01
0x402308 1 0.01
0x402310 1 0.01
0x402318 1 0.01
0x402320 1 0.01
0x402328 1 0.01
0x402330 1 0.01
0x402338 1 0.01
0x402340 1 0.01
0x402348 1 0.01
0x402350 1 0.01
0x402358 1 0.01
0x402360 1 0.01
0x402368 1 0.01
0x402370 1 0.01
0x402378 1 0.01
0x402380 1 0.01
0x402388 1 0.01
0x402390 1 0.01
0x402398 1 0.01
0x4023e8 1 0.01
0x4023f0 1 0.01
0x4023f8 1 0.01
0x402400 1 0.01
0x402408 1 0.01
0x402410 1 0.01
0x402418 1 0.01
0x402430 1 0.01
0x402438 1 0.01
0x402440 1 0.01
0x402448 1 0.01
0x402450 1 0.01
0x402458 1 0.01
0x402460 1 0.01
0x402468 1 0.01
0x402470 1 0.01
0x402478 1 0.01
0x402480 1 0.01
0x402488 1 0.01
0x402490 1 0.01
0x4024e0 1 0.01
0x4024e8 1 0.01
0x4024f0 1 0.01
0x4024f8 1 0.01
0x402500 1 0.01
0x402508 1 0.01
0x402510 1 0.01
0x402518 1 0.01
0x402520 1 0.01
0x402528 1 0.01
0x402530 1 0.01
0x402538 1 0.01
0x402540 1 0.01
0x402548 1 0.01
0x402550 1 0.01
0x402558 1 0.01
0x402560 1 0.01
0x402568 1 0.01
0x402570 1 0.01
0x402578 1 0.01
0x402580 1 0.01
0x402588 1 0.01
0x402590 1 0.01
0x402598 1 0.01
0x4025a0 1 0.01
0x4025a8 1 0.01
0x4025b0 1 0.01
0x4025b8 1 0.01
0x402670 1 0.01
0x402678 1 0.01
0x402680 1 0.01
0x402688 1 0.01
0x402690 1 0.01
0x4027e0 1 0.01
0x4027e8 1 0.01
0x402af8 1 0.01
0x402b00 1 0.01
0x402b08 1 0.01
0x402b10 1 0.01
0x402b18 1 0.01
0x402b20 1 0.01
0x402b28 1 0.01
0x402b30 1 0.01
0x402b38 1 0.01
0x402b40 1 0.01
0x402b48 1 0.01
0x402b50 1 0.01
0x402b78 1 0.01
0x402b80 1 0.01
0x402bb0 1 0.01
0x402bb8 1 0.01
0x402bc0 1 0.01
0x402bc8 1 0.01
0x402ff8 2 0.02
0x403000 2 0.02
0x403008 2 0.02
0x403010 2 0.02
0x403018 2 0.02
0x403020 2 0.02
0x403028 2 0.02
0x403030 2 0.02
0x403038 2 0.02
0x403040 2 0.02
0x403048 2 0.02
0x403050 2 0.02
0x403058 2 0.02
0x403060 2 0.02
0x403068 2 0.02
0x403070 2 0.02
0x403078 2 0.02
0x403080 2 0.02
0x403088 2 0.02
0x403090 2 0.02
0x403098 2 0.02
0x4030a0 2 0.02
0x4030a8 2 0.02
0x4030b0 2 0.02
0x4030b8 2 0.02
0x4030c0 2 0.02
0x4030c8 2 0.02
0x4030d0 2 0.02
0x403288 2 0.02
0x403290 2 0.02
0x403298 1 0.01
0x4032a0 1 0.01
0x4032a8 1 0.01
0x4032b0 1 0.01
0x4032b8 1 0.01
0x4032c0 1 0.01
0x4032c8 1 0.01
0x403330 2 0.02
0x403338 2 0.02
0x403340 2 0.02
0x403348 2 0.02
0x403380 2 0.02
0x403388 2 0.02
0x403390 2 0.02
0x403398 2 0.02
0x4033a0 2 0.02
0x4033a8 2 0.02
0x4033b0 2 0.02
0x4033b8 2 0.02
0x4033c0 2 0.02
0x4033c8 2 0.02
0x4033d0 2 0.02
0x4036d0 2 0.02
0x4036d8 2 0.02
0x4036e0 2 0.02
0x4036e8 2 0.02
0x4036f0 2 0.02
0x4036f8 2 0.02
0x403700 2 0.02
0x403708 2 0.02
0x403710 2 0.02
0x403728 2 0.02
0x403730 2 0.02
0x403738 2 0.02
0x403740 2 0.02
0x403748 2 0.02
0x403750 2 0.02
0x403758 2 0.02
0x403760 2 0.02
0x403768 2 0.02
0x403770 2 0.02
0x403778 2 0.02
0x403c10 2 0.02
0x403c18 2 0.02
0x403c20 2 0.02
0x403c28 2 0.02
0x403c30 2 0.02
0x403c38 2 0.02
0x403c40 2 0.02
0x403c48 2 0.02
0x403c50 2 0.02
0x403c58 2 0.02
0x403c60 2 0.02
0x403c68 2 0.02
0x403c70 2 0.02
0x403c78 2 0.02
0x403c80 2 0.02
0x403c98 2 0.02
0x403ca0 2 0.02
0x403ca8 2 0.02
0x403cb0 2 0.02
0x403cb8 2 0.02
0x403cc0 2 0.02
0x403cc8 2 0.02
0x403cf0 2 0.02
0x403cf8 2 0.02
0x403d00 2 0.02
0x403d08 2 0.02
0x403d10 2 0.02
0x403d48 2 0.02
0x403d50 2 0.02
0x403d58 2 0.02
0x403d60 2 0.02
0x403d68 2 0.02
0x403d70 2 0.02
0x403d78 2 0.02
0x403d80 2 0.02
0x403d88 2 0.02
0x403d90 2 0.02
0x403d98 2 0.02
0x403da0 2 0.02
0x403da8 2 0.02
0x403db0 2 0.02
0x403db8 2 0.02
0x403dc0 2 0.02
0x403dc8 2 0.02
0x403dd0 2 0.02
0x403dd8 2 0.02
0x403de0 2 0.02
0x403de8 2 0.02
0x403df0 2 0.02
0x403df8 2 0.02
0x403e00 2 0.02
0x403e08 2 0.02
0x403e10 2 0.02
0x403e18 2 0.02
0x403e20 2 0.02
0x403e28 2 0.02
0x403e30 2 0.02
0x403e38 1 0.01
0x403e40 1 0.01
0x403e58 1 0.01
0x403e60 1 0.01
0x403e68 1 0.01
0x403e70 1 0.01
0x403e78 1 0.01
0x403e80 1 0.01
0x403e88 1 0.01
0x403ec0 1 0.01
0x403ec8 1 0.01
0x403ed0 1 0.01
0x403ef8 2 0.02
0x403f00 2 0.02
0x403f08 2 0.02
0x403f10 2 0.02
0x403f18 2 0.02
0x403f20 2 0.02
0x403f28 2 0.02
0x403f30 2 0.02
0x403f38 2 0.02
0x403f68 2 0.02
0x404030 2 0.02
0x404038 2 0.02
0x404040 2 0.02
0x404068 2 0.02
0x404070 2 0.02
0x404080 2 0.02
0x404088 2 0.02
0x404090 2 0.02
0x404098 2 0.02
0x4040a0 2 0.02
0x4040a8 2 0.02
0x4040d8 2 0.02
0x4040e0 2 0.02
0x4040e8 2 0.02
0x4040f0 2 0.02
0x404108 2 0.02
0x404110 2 0.02
0x404118 2 0.02
0x404120 2 0.02
0x404128 2 0.02
0x404130 2 0.02
0x404138 2 0.02
0x404140 2 0.02
0x4046d8 3 0.04
0x4046e0 3 0.04
0x4046e8 3 0.04
0x4046f0 3 0.04
0x4046f8 3 0.04
0x404700 3 0.04
0x404708 3 0.04
0x404710 3 0.04
0x404718 3 0.04
0x404720 3 0.04
0x404728 3 0.04
0x404730 3 0.04
0x404738 3 0.04
0x404740 3 0.04
0x404748 3 0.04
0x4048f0 2 0.02
0x4048f8 2 0.02
0x404900 2 0.02
0x404908 2 0.02
0x404910 2 0.02
0x404918 2 0.02
0x404d90 3 0.04
0x404d98 3 0.04
0x404da0 3 0.04
0x404da8 3 0.04
0x404dc0 3 0.04
0x404dc8 3 0.04
0x404dd0 3 0.04
0x404dd8 3 0.04
0x404de0 3 0.04
0x404de8 3 0.04
0x404df0 3 0.04
0x404df8 3 0.04
0x404e00 3 0.04
0x404e08 3 0.04
0x404e10 3 0.04
0x405670 2 0.02
0x405678 2 0.02
0x405680 2 0.02
0x405688 2 0.02
0x405690 2 0.02
0x405698 2 0.02
0x4056a0 2 0.02
0x4056a8 2 0.02
0x4056b0 2 0.02
0x4056b8 2 0.02
0x4056c0 2 0.02
0x4056c8 1 0.01
0x4056d0 1 0.01
0x4056d8 1 0.01
0x4056e0 1 0.01
0x4056e8 1 0.01
0x4056f0 1 0.01
0x4056f8 1 0.01
0x405700 1 0.01
0x405728 1 0.01
0x405730 1 0.01
0x405770 1 0.01
0x405778 1 0.01
0x405780 2 0.02
0x405788 2 0.02
0x405790 2 0.02
0x405798 2 0.02
0x4057a0 2 0.02
0x405880 2 0.02
0x405888 2 0.02
0x405890 2 0.02
0x405898 2 0.02
0x4058a0 2 0.02
0x405930 3 0.04
0x405938 3 0.04
0x405940 3 0.04
0x405950 3 0.04
0x405958 3 0.04
0x405960 3 0.04
0x405968 3 0.04
0x405970 3 0.04
0x405978 3 0.04
0x4059a0 1 0.01
0x4059a8 1 0.01
0x4059b0 1 0.01
0x4059b8 1 0.01
0x4059c0 1 0.01
sim_num_insn_by_pc.end_dist

ld_text_base             0x00400000 # program text (code) segment base
ld_text_size                  23296 # program text (code) size in bytes
ld_data_base             0x10000000 # program initialized data segment base
ld_data_size                   4096 # program init'ed `.data' and uninit'ed `.bss' size in bytes
ld_stack_base            0x7fffc000 # program stack segment base (highest address in stack)
ld_stack_size                 16384 # program initial stack size
ld_prog_entry            0x00400140 # program entry point (initial PC)
ld_environ_base          0x7fff8000 # program environment base address address
ld_target_big_endian              0 # target executable endian-ness, non-zero if big endian
mem.page_count                   12 # total number of pages allocated
mem.page_mem                    48k # total size of memory pages allocated
mem.ptab_misses                  12 # total first level page table misses
mem.ptab_accesses            187448 # total page table accesses
mem.ptab_miss_rate           0.0001 # first level page table miss rate

+--------------------------------------------------------------+
| effective code range:         [0, fffffff8]                  |
| effective bpred count:        0                              |
| effective sim cycles:         0                              |
| effective bpred misses:       0                              |
| effective icache misses:      0                              |
+--------------------------------------------------------------+

